NAME : ../File/prFile/tspFile/tsp_file40.tsp.466.tour
COMMENT : Length = 466
COMMENT : Found by LKH-3 [Keld Helsgaun] Wed Jun 14 15:57:59 2023
TYPE : TOUR
DIMENSION : 30
TOUR_SECTION
1
8
9
30
15
5
12
4
17
13
21
11
20
26
2
6
16
3
19
18
27
28
10
23
14
24
29
25
7
22
-1
EOF
